2023/11/29
gurobi is now 11.0.0
previous version was 10.0.3
solving instance knapsack 200 6 divexp
Couenne 0.5.8 -- an Open-Source solver for Mixed Integer Nonlinear Optimization
Mailing list: couenne@list.coin-or.org
Instructions: http://www.coin-or.org/Couenne
couenne: 
ANALYSIS TEST: Couenne: new cutoff value 0.0000000000e+00 (0.080648 seconds)
Reformulation: 0.1 seconds
NLP0012I 
              Num      Status      Obj             It       time                 Location
NLP0014I             1      FAILED -5100.5201     3000 30.466569
NLP0014I             1      FAILED -5100.5201     3000 30.669636   resolve robustness
NLP3006W Warning : continuing branching, while there are unrecovered failures at nodes
Loaded instance "/tmp/jl_JP6OCa/model.nl"
Constraints:          601
Variables:            600 (200 integer)
Auxiliaries:         1402 (0 integer)

Coin0506I Presolve 2584 (-802) rows, 999 (-1003) columns and 5765 (-1804) elements
Clp0006I 0  Obj -7047.524 Primal inf 1877199.4 (2005)
Clp0006I 126  Obj -7047.524 Primal inf 326907.02 (1847)
Clp0006I 252  Obj -7047.524 Primal inf 126875.3 (1708)
Clp0006I 378  Obj -7047.524 Primal inf 47789.617 (1486)
Clp0006I 504  Obj -7047.524 Primal inf 5238226.7 (1318)
Clp0006I 630  Obj -7047.524 Primal inf 611159.61 (1175)
Clp0006I 756  Obj -7047.524 Primal inf 23861.323 (1022)
Clp0006I 882  Obj -7047.524 Primal inf 16995.819 (914)
Clp0006I 1008  Obj -7047.524 Primal inf 18181.769 (847)
Clp0006I 1123  Obj -7047.524 Primal inf 15308.207 (772)
Clp0006I 1150  Obj -7047.524 Primal inf 12922.712 (752)
Clp0006I 1271  Obj -7047.524 Primal inf 51375.619 (646)
Clp0006I 1284  Obj -7047.524 Primal inf 8390.9607 (655)
Clp0006I 1322  Obj -7047.524 Primal inf 51240.101 (637)
Clp0006I 1381  Obj -7047.524 Primal inf 12968.736 (593)
Clp0006I 1507  Obj -7047.524 Primal inf 4348.5501 (474)
Clp0006I 1532  Obj -7047.524 Primal inf 15045.571 (501)
Clp0006I 1658  Obj -7047.5155 Primal inf 10522.548 (480)
Clp0006I 1784  Obj -7047.2247 Primal inf 1502.9571 (260)
Clp0006I 1910  Obj -7046.8975 Primal inf 8.1701231 (63)
Clp0006I 1956  Obj -7046.8853
Clp0000I Optimal - objective value -7046.8953
Clp0006I 0  Obj -7046.8953 Primal inf 4.032952e-07 (1) Dual inf 1.2951579e+12 (18)
Clp0006I 24  Obj -7046.9264
Clp0006I 25  Obj -7046.9264
Clp0000I Optimal - objective value -7046.9264
Clp0032I Optimal objective -7046.926438 - 1981 iterations time 0.122, Presolve 0.01
Clp0000I Optimal - objective value -7046.9264
NLP Heuristic: NLP0014I             3         OPT -5762.6322      417 4.10091
no solution.
Clp0006I 0  Obj -7046.9264 Dual inf 3.2611836e-06 (22)
Clp0000I Optimal - objective value -7046.9264
Optimality Based BT: 193 improved bounds
Probing: 0 improved bounds
NLP Heuristic: time limit reached.
Cbc0031I 336 added rows had average density of 2
Cbc0013I At root node, 336 cuts changed objective from -7046.9264 to -7046.4497 in 20 passes
Cbc0014I Cut generator 0 (Couenne convexifier cuts) - 2957 row cuts average 2.0 elements, 21 column cuts (278 active)
Cbc0010I After 0 nodes, 1 on tree, 1e+50 best solution, best possible -1.7976931e+308 (33.75 seconds)
Optimality Based BT: 191 improved bounds
Optimality Based BT: 193 improved bounds
Optimality Based BT: 0 improved bounds
Optimality Based BT: 191 improved bounds
Optimality Based BT: 192 improved bounds
Optimality Based BT: 0 improved bounds
Cbc0010I After 100 nodes, 50 on tree, 1e+50 best solution, best possible -7046.1647 (283.98 seconds)
Cbc0010I After 200 nodes, 100 on tree, 1e+50 best solution, best possible -7046.1647 (294.64 seconds)
Cbc0010I After 300 nodes, 150 on tree, 1e+50 best solution, best possible -7046.1647 (305.35 seconds)
Cbc0010I After 400 nodes, 200 on tree, 1e+50 best solution, best possible -7046.1647 (316.14 seconds)
Cbc0010I After 500 nodes, 250 on tree, 1e+50 best solution, best possible -7046.1647 (327.34 seconds)
Cbc0010I After 600 nodes, 300 on tree, 1e+50 best solution, best possible -7046.1647 (338.62 seconds)
Cbc0010I After 700 nodes, 350 on tree, 1e+50 best solution, best possible -7046.1647 (349.83 seconds)
Cbc0010I After 800 nodes, 400 on tree, 1e+50 best solution, best possible -7046.1647 (361.28 seconds)
Cbc0010I After 900 nodes, 450 on tree, 1e+50 best solution, best possible -7046.1647 (373.11 seconds)
Cbc0010I After 1000 nodes, 500 on tree, 1e+50 best solution, best possible -7046.1647 (385.05 seconds)
Cbc0010I After 1100 nodes, 550 on tree, 1e+50 best solution, best possible -7046.1647 (397.19 seconds)
Cbc0010I After 1200 nodes, 600 on tree, 1e+50 best solution, best possible -7046.1647 (409.68 seconds)
Cbc0010I After 1300 nodes, 650 on tree, 1e+50 best solution, best possible -7046.1647 (422.32 seconds)
Cbc0010I After 1400 nodes, 700 on tree, 1e+50 best solution, best possible -7046.1647 (435.24 seconds)
Cbc0010I After 1500 nodes, 750 on tree, 1e+50 best solution, best possible -7046.1647 (448.47 seconds)
Cbc0010I After 1600 nodes, 800 on tree, 1e+50 best solution, best possible -7046.1647 (461.86 seconds)
Cbc0010I After 1700 nodes, 850 on tree, 1e+50 best solution, best possible -7046.1647 (475.36 seconds)
Cbc0010I After 1800 nodes, 900 on tree, 1e+50 best solution, best possible -7046.1647 (489.03 seconds)
Cbc0010I After 1900 nodes, 950 on tree, 1e+50 best solution, best possible -7046.1647 (502.82 seconds)
Cbc0010I After 2000 nodes, 1000 on tree, 1e+50 best solution, best possible -7046.1647 (516.64 seconds)
Cbc0010I After 2100 nodes, 1050 on tree, 1e+50 best solution, best possible -7046.1647 (530.53 seconds)
Cbc0010I After 2200 nodes, 1100 on tree, 1e+50 best solution, best possible -7046.1647 (544.40 seconds)
Cbc0010I After 2300 nodes, 1150 on tree, 1e+50 best solution, best possible -7046.1647 (558.20 seconds)
Cbc0010I After 2400 nodes, 1200 on tree, 1e+50 best solution, best possible -7046.1647 (572.07 seconds)
Cbc0010I After 2500 nodes, 1250 on tree, 1e+50 best solution, best possible -7046.1647 (585.88 seconds)
Cbc0010I After 2600 nodes, 1300 on tree, 1e+50 best solution, best possible -7046.1647 (599.91 seconds)
Cbc0010I After 2700 nodes, 1350 on tree, 1e+50 best solution, best possible -7046.1647 (614.14 seconds)
Cbc0010I After 2800 nodes, 1400 on tree, 1e+50 best solution, best possible -7046.1647 (628.13 seconds)
Cbc0010I After 2900 nodes, 1450 on tree, 1e+50 best solution, best possible -7046.1647 (642.14 seconds)
Cbc0010I After 3000 nodes, 1500 on tree, 1e+50 best solution, best possible -7046.1647 (656.26 seconds)
Cbc0010I After 3100 nodes, 1550 on tree, 1e+50 best solution, best possible -7046.1647 (670.39 seconds)
Cbc0010I After 3200 nodes, 1600 on tree, 1e+50 best solution, best possible -7046.1647 (683.97 seconds)
Cbc0010I After 3300 nodes, 1650 on tree, 1e+50 best solution, best possible -7046.1647 (697.03 seconds)
Cbc0010I After 3400 nodes, 1700 on tree, 1e+50 best solution, best possible -7046.1647 (709.29 seconds)
Cbc0010I After 3500 nodes, 1750 on tree, 1e+50 best solution, best possible -7046.1647 (720.98 seconds)
Cbc0010I After 3600 nodes, 1800 on tree, 1e+50 best solution, best possible -7046.1647 (732.86 seconds)
Cbc0010I After 3700 nodes, 1850 on tree, 1e+50 best solution, best possible -7046.1647 (744.50 seconds)
Cbc0010I After 3800 nodes, 1900 on tree, 1e+50 best solution, best possible -7046.1647 (756.33 seconds)
Cbc0010I After 3900 nodes, 1950 on tree, 1e+50 best solution, best possible -7046.1647 (768.19 seconds)
Cbc0010I After 4000 nodes, 2000 on tree, 1e+50 best solution, best possible -7046.1647 (780.16 seconds)
Cbc0010I After 4100 nodes, 2050 on tree, 1e+50 best solution, best possible -7046.1647 (792.28 seconds)
Cbc0010I After 4200 nodes, 2100 on tree, 1e+50 best solution, best possible -7046.1647 (804.42 seconds)
Cbc0010I After 4300 nodes, 2150 on tree, 1e+50 best solution, best possible -7046.1647 (816.44 seconds)
Cbc0010I After 4400 nodes, 2200 on tree, 1e+50 best solution, best possible -7046.1647 (828.51 seconds)
Cbc0010I After 4500 nodes, 2250 on tree, 1e+50 best solution, best possible -7046.1647 (840.67 seconds)
Cbc0010I After 4600 nodes, 2300 on tree, 1e+50 best solution, best possible -7046.1647 (852.81 seconds)
Couenne: new cutoff value -3.9839514611e+03 (917.511 seconds)
Optimality Based BT: 0 improved bounds
Optimality Based BT: 192 improved bounds
Optimality Based BT: 0 improved bounds
Cbc0010I After 4700 nodes, 2348 on tree, 1e+50 best solution, best possible -7045.907 (1019.47 seconds)
Cbc0010I After 4800 nodes, 2398 on tree, 1e+50 best solution, best possible -7045.907 (1032.37 seconds)
Cbc0010I After 4900 nodes, 2448 on tree, 1e+50 best solution, best possible -7045.907 (1045.19 seconds)
Cbc0010I After 5000 nodes, 2498 on tree, 1e+50 best solution, best possible -7045.907 (1057.95 seconds)
Cbc0010I After 5100 nodes, 2548 on tree, 1e+50 best solution, best possible -7045.907 (1070.96 seconds)
Cbc0010I After 5200 nodes, 2598 on tree, 1e+50 best solution, best possible -7045.907 (1084.11 seconds)
Cbc0010I After 5300 nodes, 2648 on tree, 1e+50 best solution, best possible -7045.907 (1097.47 seconds)
Cbc0010I After 5400 nodes, 2698 on tree, 1e+50 best solution, best possible -7045.907 (1111.08 seconds)
Cbc0010I After 5500 nodes, 2748 on tree, 1e+50 best solution, best possible -7045.907 (1124.79 seconds)
Cbc0010I After 5600 nodes, 2798 on tree, 1e+50 best solution, best possible -7045.907 (1138.90 seconds)
Cbc0010I After 5700 nodes, 2848 on tree, 1e+50 best solution, best possible -7045.907 (1153.36 seconds)
Cbc0010I After 5800 nodes, 2898 on tree, 1e+50 best solution, best possible -7045.907 (1167.95 seconds)
Cbc0010I After 5900 nodes, 2948 on tree, 1e+50 best solution, best possible -7045.907 (1182.75 seconds)
Cbc0010I After 6000 nodes, 2998 on tree, 1e+50 best solution, best possible -7045.907 (1197.94 seconds)
Cbc0010I After 6100 nodes, 3048 on tree, 1e+50 best solution, best possible -7045.907 (1213.20 seconds)
Cbc0010I After 6200 nodes, 3098 on tree, 1e+50 best solution, best possible -7045.907 (1228.71 seconds)
Cbc0010I After 6300 nodes, 3148 on tree, 1e+50 best solution, best possible -7045.907 (1244.49 seconds)
Cbc0010I After 6400 nodes, 3198 on tree, 1e+50 best solution, best possible -7045.907 (1260.58 seconds)
Cbc0010I After 6500 nodes, 3248 on tree, 1e+50 best solution, best possible -7045.907 (1276.53 seconds)
Cbc0010I After 6600 nodes, 3298 on tree, 1e+50 best solution, best possible -7045.907 (1292.66 seconds)
Cbc0010I After 6700 nodes, 3348 on tree, 1e+50 best solution, best possible -7045.907 (1308.36 seconds)
Cbc0010I After 6800 nodes, 3398 on tree, 1e+50 best solution, best possible -7045.907 (1324.24 seconds)
Cbc0010I After 6900 nodes, 3448 on tree, 1e+50 best solution, best possible -7045.907 (1340.47 seconds)
Cbc0010I After 7000 nodes, 3498 on tree, 1e+50 best solution, best possible -7045.907 (1356.52 seconds)
Cbc0010I After 7100 nodes, 3547 on tree, 1e+50 best solution, best possible -7045.907 (1372.41 seconds)
Cbc0010I After 7200 nodes, 3597 on tree, 1e+50 best solution, best possible -7045.907 (1388.35 seconds)
Cbc0010I After 7300 nodes, 3646 on tree, 1e+50 best solution, best possible -7045.907 (1404.27 seconds)
Cbc0010I After 7400 nodes, 3695 on tree, 1e+50 best solution, best possible -7045.907 (1420.48 seconds)
Cbc0010I After 7500 nodes, 3744 on tree, 1e+50 best solution, best possible -7045.907 (1436.95 seconds)
Cbc0010I After 7600 nodes, 3793 on tree, 1e+50 best solution, best possible -7045.907 (1453.34 seconds)
Cbc0010I After 7700 nodes, 3843 on tree, 1e+50 best solution, best possible -7045.907 (1469.42 seconds)
Cbc0010I After 7800 nodes, 3893 on tree, 1e+50 best solution, best possible -7045.907 (1485.85 seconds)
Cbc0010I After 7900 nodes, 3943 on tree, 1e+50 best solution, best possible -7045.907 (1501.48 seconds)
Cbc0010I After 8000 nodes, 3993 on tree, 1e+50 best solution, best possible -7045.907 (1516.22 seconds)
Cbc0010I After 8100 nodes, 4043 on tree, 1e+50 best solution, best possible -7045.907 (1530.17 seconds)
Cbc0010I After 8200 nodes, 4093 on tree, 1e+50 best solution, best possible -7045.907 (1543.84 seconds)
Cbc0010I After 8300 nodes, 4143 on tree, 1e+50 best solution, best possible -7045.907 (1557.61 seconds)
Cbc0010I After 8400 nodes, 4193 on tree, 1e+50 best solution, best possible -7045.907 (1571.65 seconds)
Cbc0010I After 8500 nodes, 4243 on tree, 1e+50 best solution, best possible -7045.907 (1585.68 seconds)
Cbc0010I After 8600 nodes, 4293 on tree, 1e+50 best solution, best possible -7045.907 (1599.77 seconds)
Cbc0010I After 8700 nodes, 4343 on tree, 1e+50 best solution, best possible -7045.907 (1614.12 seconds)
Cbc0010I After 8800 nodes, 4393 on tree, 1e+50 best solution, best possible -7045.907 (1628.32 seconds)
Cbc0010I After 8900 nodes, 4443 on tree, 1e+50 best solution, best possible -7045.907 (1642.43 seconds)
Cbc0010I After 9000 nodes, 4493 on tree, 1e+50 best solution, best possible -7045.907 (1656.68 seconds)
Cbc0010I After 9100 nodes, 4543 on tree, 1e+50 best solution, best possible -7045.907 (1670.89 seconds)
Cbc0010I After 9200 nodes, 4593 on tree, 1e+50 best solution, best possible -7045.907 (1685.21 seconds)
Couenne: new cutoff value -4.0944979088e+03 (1754.83 seconds)
Optimality Based BT: 192 improved bounds
Cbc0010I After 9300 nodes, 4641 on tree, 1e+50 best solution, best possible -7045.9053 (1760.75 seconds)
Cbc0010I After 9400 nodes, 4691 on tree, 1e+50 best solution, best possible -7045.9053 (1775.88 seconds)
Cbc0010I After 9500 nodes, 4741 on tree, 1e+50 best solution, best possible -7045.9053 (1790.91 seconds)
Cbc0010I After 9600 nodes, 4791 on tree, 1e+50 best solution, best possible -7045.9053 (1807.51 seconds)
Cbc0010I After 9700 nodes, 4841 on tree, 1e+50 best solution, best possible -7045.9053 (1822.42 seconds)
Cbc0010I After 9800 nodes, 4891 on tree, 1e+50 best solution, best possible -7045.9053 (1837.70 seconds)
Cbc0010I After 9900 nodes, 4941 on tree, 1e+50 best solution, best possible -7045.9053 (1853.27 seconds)
Cbc0010I After 10000 nodes, 4991 on tree, 1e+50 best solution, best possible -7045.9053 (1869.02 seconds)
Cbc0010I After 10100 nodes, 5041 on tree, 1e+50 best solution, best possible -7045.9053 (1884.74 seconds)
Cbc0010I After 10200 nodes, 5091 on tree, 1e+50 best solution, best possible -7045.9053 (1900.98 seconds)
Cbc0010I After 10300 nodes, 5141 on tree, 1e+50 best solution, best possible -7045.9053 (1917.22 seconds)
Cbc0010I After 10400 nodes, 5191 on tree, 1e+50 best solution, best possible -7045.9053 (1933.73 seconds)
Cbc0010I After 10500 nodes, 5241 on tree, 1e+50 best solution, best possible -7045.9053 (1950.71 seconds)
Cbc0010I After 10600 nodes, 5291 on tree, 1e+50 best solution, best possible -7045.9053 (1967.69 seconds)
Cbc0010I After 10700 nodes, 5341 on tree, 1e+50 best solution, best possible -7045.9053 (1984.98 seconds)
Cbc0010I After 10800 nodes, 5391 on tree, 1e+50 best solution, best possible -7045.9053 (2002.57 seconds)
Cbc0010I After 10900 nodes, 5441 on tree, 1e+50 best solution, best possible -7045.9053 (2020.24 seconds)
Cbc0010I After 11000 nodes, 5491 on tree, 1e+50 best solution, best possible -7045.9053 (2037.99 seconds)
Cbc0010I After 11100 nodes, 5541 on tree, 1e+50 best solution, best possible -7045.9053 (2056.03 seconds)
Cbc0010I After 11200 nodes, 5591 on tree, 1e+50 best solution, best possible -7045.9053 (2074.02 seconds)
Cbc0010I After 11300 nodes, 5641 on tree, 1e+50 best solution, best possible -7045.9053 (2091.68 seconds)
Cbc0010I After 11400 nodes, 5691 on tree, 1e+50 best solution, best possible -7045.9053 (2109.67 seconds)
Cbc0010I After 11500 nodes, 5741 on tree, 1e+50 best solution, best possible -7045.9053 (2127.58 seconds)
Cbc0010I After 11600 nodes, 5791 on tree, 1e+50 best solution, best possible -7045.9053 (2145.40 seconds)
Cbc0010I After 11700 nodes, 5840 on tree, 1e+50 best solution, best possible -7045.9053 (2163.36 seconds)
Cbc0010I After 11800 nodes, 5887 on tree, 1e+50 best solution, best possible -7045.9053 (2180.91 seconds)
Cbc0010I After 11900 nodes, 5934 on tree, 1e+50 best solution, best possible -7045.9053 (2198.71 seconds)
Cbc0010I After 12000 nodes, 5980 on tree, 1e+50 best solution, best possible -7045.9053 (2216.41 seconds)
Cbc0010I After 12100 nodes, 6025 on tree, 1e+50 best solution, best possible -7045.9053 (2233.91 seconds)
Cbc0010I After 12200 nodes, 6074 on tree, 1e+50 best solution, best possible -7045.9053 (2252.04 seconds)
Cbc0010I After 12300 nodes, 6124 on tree, 1e+50 best solution, best possible -7045.9053 (2270.83 seconds)
Cbc0010I After 12400 nodes, 6174 on tree, 1e+50 best solution, best possible -7045.9053 (2289.49 seconds)
Cbc0010I After 12500 nodes, 6224 on tree, 1e+50 best solution, best possible -7045.9053 (2308.00 seconds)
Cbc0010I After 12600 nodes, 6274 on tree, 1e+50 best solution, best possible -7045.9053 (2326.21 seconds)
Cbc0010I After 12700 nodes, 6324 on tree, 1e+50 best solution, best possible -7045.9053 (2343.12 seconds)
Cbc0010I After 12800 nodes, 6374 on tree, 1e+50 best solution, best possible -7045.9053 (2359.44 seconds)
Cbc0010I After 12900 nodes, 6424 on tree, 1e+50 best solution, best possible -7045.9053 (2375.83 seconds)
Cbc0010I After 13000 nodes, 6474 on tree, 1e+50 best solution, best possible -7045.9053 (2391.98 seconds)
Cbc0010I After 13100 nodes, 6524 on tree, 1e+50 best solution, best possible -7045.9053 (2408.24 seconds)
Cbc0010I After 13200 nodes, 6574 on tree, 1e+50 best solution, best possible -7045.9053 (2424.91 seconds)
Cbc0010I After 13300 nodes, 6624 on tree, 1e+50 best solution, best possible -7045.9053 (2441.49 seconds)
Cbc0010I After 13400 nodes, 6674 on tree, 1e+50 best solution, best possible -7045.9053 (2457.99 seconds)
Cbc0010I After 13500 nodes, 6724 on tree, 1e+50 best solution, best possible -7045.9053 (2474.52 seconds)
Cbc0010I After 13600 nodes, 6774 on tree, 1e+50 best solution, best possible -7045.9053 (2490.84 seconds)
Cbc0010I After 13700 nodes, 6824 on tree, 1e+50 best solution, best possible -7045.9053 (2507.28 seconds)
Cbc0010I After 13800 nodes, 6874 on tree, 1e+50 best solution, best possible -7045.9053 (2524.03 seconds)
Cbc0010I After 13900 nodes, 6924 on tree, 1e+50 best solution, best possible -7045.9053 (2540.63 seconds)
Cbc0010I After 14000 nodes, 6974 on tree, 1e+50 best solution, best possible -7045.9053 (2557.33 seconds)
Cbc0010I After 14100 nodes, 7024 on tree, 1e+50 best solution, best possible -7045.9053 (2574.25 seconds)
Couenne: new cutoff value -4.0992847232e+03 (2638.76 seconds)
Cbc0010I After 14200 nodes, 7072 on tree, 1e+50 best solution, best possible -7045.9036 (2609.45 seconds)
Cbc0010I After 14300 nodes, 7122 on tree, 1e+50 best solution, best possible -7045.9036 (2626.83 seconds)
Cbc0010I After 14400 nodes, 7172 on tree, 1e+50 best solution, best possible -7045.9036 (2644.27 seconds)
Cbc0010I After 14500 nodes, 7222 on tree, 1e+50 best solution, best possible -7045.9036 (2661.15 seconds)
Cbc0010I After 14600 nodes, 7272 on tree, 1e+50 best solution, best possible -7045.9036 (2678.46 seconds)
Cbc0010I After 14700 nodes, 7322 on tree, 1e+50 best solution, best possible -7045.9036 (2696.17 seconds)
Cbc0010I After 14800 nodes, 7372 on tree, 1e+50 best solution, best possible -7045.9036 (2713.93 seconds)
Cbc0010I After 14900 nodes, 7422 on tree, 1e+50 best solution, best possible -7045.9036 (2731.83 seconds)
Cbc0010I After 15000 nodes, 7472 on tree, 1e+50 best solution, best possible -7045.9036 (2750.27 seconds)
Cbc0010I After 15100 nodes, 7522 on tree, 1e+50 best solution, best possible -7045.9036 (2768.65 seconds)
Cbc0010I After 15200 nodes, 7572 on tree, 1e+50 best solution, best possible -7045.9036 (2787.39 seconds)
Cbc0010I After 15300 nodes, 7622 on tree, 1e+50 best solution, best possible -7045.9036 (2806.87 seconds)
Cbc0010I After 15400 nodes, 7672 on tree, 1e+50 best solution, best possible -7045.9036 (2826.42 seconds)
Cbc0010I After 15500 nodes, 7722 on tree, 1e+50 best solution, best possible -7045.9036 (2846.06 seconds)
Cbc0010I After 15600 nodes, 7772 on tree, 1e+50 best solution, best possible -7045.9036 (2866.58 seconds)
Cbc0010I After 15700 nodes, 7822 on tree, 1e+50 best solution, best possible -7045.9036 (2886.51 seconds)
Cbc0010I After 15800 nodes, 7872 on tree, 1e+50 best solution, best possible -7045.9036 (2906.42 seconds)
Cbc0010I After 15900 nodes, 7922 on tree, 1e+50 best solution, best possible -7045.9036 (2926.71 seconds)
Cbc0010I After 16000 nodes, 7972 on tree, 1e+50 best solution, best possible -7045.9036 (2946.67 seconds)
Cbc0010I After 16100 nodes, 8022 on tree, 1e+50 best solution, best possible -7045.9036 (2966.24 seconds)
Cbc0010I After 16200 nodes, 8072 on tree, 1e+50 best solution, best possible -7045.9036 (2986.62 seconds)
Cbc0010I After 16300 nodes, 8122 on tree, 1e+50 best solution, best possible -7045.9036 (3006.57 seconds)
Cbc0010I After 16400 nodes, 8172 on tree, 1e+50 best solution, best possible -7045.9036 (3026.57 seconds)
Cbc0010I After 16500 nodes, 8217 on tree, 1e+50 best solution, best possible -7045.9036 (3046.32 seconds)
Cbc0010I After 16600 nodes, 8258 on tree, 1e+50 best solution, best possible -7045.8999 (3065.53 seconds)
Cbc0010I After 16700 nodes, 8308 on tree, 1e+50 best solution, best possible -7045.8999 (3085.40 seconds)
Cbc0010I After 16800 nodes, 8358 on tree, 1e+50 best solution, best possible -7045.8999 (3105.02 seconds)
Cbc0010I After 16900 nodes, 8408 on tree, 1e+50 best solution, best possible -7045.8999 (3124.11 seconds)
Cbc0010I After 17000 nodes, 8458 on tree, 1e+50 best solution, best possible -7045.8999 (3143.56 seconds)
Cbc0010I After 17100 nodes, 8508 on tree, 1e+50 best solution, best possible -7045.8999 (3163.76 seconds)
Cbc0010I After 17200 nodes, 8558 on tree, 1e+50 best solution, best possible -7045.8999 (3183.74 seconds)
Cbc0010I After 17300 nodes, 8608 on tree, 1e+50 best solution, best possible -7045.8999 (3204.06 seconds)
Cbc0010I After 17400 nodes, 8658 on tree, 1e+50 best solution, best possible -7045.8999 (3224.72 seconds)
Cbc0010I After 17500 nodes, 8708 on tree, 1e+50 best solution, best possible -7045.8999 (3245.10 seconds)
Cbc0010I After 17600 nodes, 8758 on tree, 1e+50 best solution, best possible -7045.8999 (3266.18 seconds)
Cbc0010I After 17700 nodes, 8808 on tree, 1e+50 best solution, best possible -7045.8999 (3287.87 seconds)
Cbc0010I After 17800 nodes, 8858 on tree, 1e+50 best solution, best possible -7045.8999 (3309.40 seconds)
Cbc0010I After 17900 nodes, 8908 on tree, 1e+50 best solution, best possible -7045.8999 (3331.49 seconds)
Cbc0010I After 18000 nodes, 8958 on tree, 1e+50 best solution, best possible -7045.8999 (3353.74 seconds)
Cbc0010I After 18100 nodes, 9008 on tree, 1e+50 best solution, best possible -7045.8999 (3376.03 seconds)
Cbc0010I After 18200 nodes, 9058 on tree, 1e+50 best solution, best possible -7045.8999 (3399.02 seconds)
Cbc0010I After 18300 nodes, 9108 on tree, 1e+50 best solution, best possible -7045.8999 (3422.08 seconds)
Cbc0010I After 18400 nodes, 9158 on tree, 1e+50 best solution, best possible -7045.8999 (3444.91 seconds)
Cbc0010I After 18500 nodes, 9208 on tree, 1e+50 best solution, best possible -7045.8999 (3467.19 seconds)
Cbc0010I After 18600 nodes, 9258 on tree, 1e+50 best solution, best possible -7045.8999 (3490.24 seconds)
Cbc0010I After 18700 nodes, 9308 on tree, 1e+50 best solution, best possible -7045.8999 (3513.21 seconds)
Cbc0010I After 18800 nodes, 9358 on tree, 1e+50 best solution, best possible -7045.8999 (3535.85 seconds)
